100 10
100 3
84 20
36 64
78 18
23 86
49 49
95 1
34 60
59 47
66 35
21 78
21 85
75 23
10 97
12 81
79 22
36 65
88 16
81 12
65 44
40 66
85 14
54 47
13 87
63 30
10 95
7 88
84 24
97 12
94 4
92 18
41 52
65 40
23 83
19 90
39 57
61 45
50 59
95 1
70 30
18 85
71 33
67 28
93 6
50 48
73 18
27 74
14 85
73 21
37 66
62 31
74 26
72 27
1 100
11 98
29 70
56 39
93 16
75 22
92 1
55 43
27 79
52 52
21 73
45 54
45 56
98 11
68 42
9 97
12 83
77 28
2 96
74 25
18 80
29 69
65 36
17 81
4 100
41 58
49 49
26 80
95 1
27 65
48 57
59 50
70 30
12 92
9 88
66 31
100 4
64 39
48 58
82 17
92 14
91 1
65 32
9 96
67 32
44 65
20 82
643 730
619 768
521 609
482 551
481 567
446 504
594 669
500 563
532 641
387 450
